NAME : random1075790
COMMENT: random generated with id 1075790
TYPE : TSP
DIMENSION : 10
EDGE_WEIGHT_TYPE : EUC_2D
NODE_COORD_SECTION
1 14.241247 11.857949
2 2.351899 17.022775
3 18.730960 3.049250
4 5.595669 17.584305
5 16.885507 4.599708
6 18.795911 6.385000
7 19.108904 15.714243
8 16.642585 8.026171
9 3.320479 9.546727
10 14.828041 18.546730
EOF
